4 
5  45 
6  05 23 38 51 
7  06 21 36 51 
8  06 21 36 51 
9  06 21 37 51 
10  06 21 36 51 
11  05 20 35 50 
12  05 20 35 50 
13  05 21 36 51 
14  06 21 36 51 
15  06 21 36 51 
16  06 21 36 51 
17  06 21 36 51 
18  06 21 36 51 
19  07 21 36 51 
20  06 21 36 51 
21  06 21 39 54 
22  06 21 36 51 
23  09 22 37 
0 
